39 40
29
3 3 31 23
3 4 31 26
5 3 22 32
3 6 5 34
3 7 0 15
3 8 10 24
3 9 18 23
3 10 15 18
11 3 11 32
15 3 3 15
3 4 3 18
4 4 26 15
5 4 13 28
6 4 21 23
8 4 18 15
9 4 30 15
4 12 27 23
4 15 6 19
16 4 18 19
3 5 31 30
5 4 16 36
5 5 22 27
5 6 10 18
8 5 8 35
5 10 34 30
5 11 34 19
13 5 21 35
5 18 0 22
39 15 0 0
